NAME: Taillard-385
BEST_KNOWN: 24366.69
COMMENT: 24366.690000
DIMENSION: 386
CAPACITY: 65
EDGE_WEIGHT_FORMAT: FUNCTION
EDGE_WEIGHT_TYPE: EXACT_2D
NODE_COORD_SECTION
1 0.00000 0.00000
2 -166.00000 -45.00000
3 71.00000 106.00000
4 -302.00000 -153.00000
5 137.00000 305.00000
6 163.00000 307.00000
7 62.00000 319.00000
8 71.00000 343.00000
9 83.00000 350.00000
10 94.00000 351.00000
11 108.00000 360.00000
12 119.00000 366.00000
13 125.00000 401.00000
14 33.00000 352.00000
15 18.00000 318.00000
16 -10.00000 319.00000
17 10.00000 336.00000
18 -7.00000 344.00000
19 -30.00000 298.00000
20 -48.00000 337.00000
21 50.00000 365.00000
22 53.00000 361.00000
23 44.00000 362.00000
24 40.00000 371.00000
25 42.00000 348.00000
26 45.00000 338.00000
27 40.00000 320.00000
28 33.00000 307.00000
29 33.00000 297.00000
30 23.00000 340.00000
31 69.00000 368.00000
32 124.00000 408.00000
33 282.00000 330.00000
34 304.00000 342.00000
35 278.00000 388.00000
36 260.00000 409.00000
37 312.00000 398.00000
38 362.00000 367.00000
39 377.00000 392.00000
40 365.00000 394.00000
41 393.00000 428.00000
42 325.00000 423.00000
43 341.00000 440.00000
44 351.00000 446.00000
45 342.00000 448.00000
46 380.00000 467.00000
47 319.00000 449.00000
48 331.00000 464.00000
49 348.00000 481.00000
50 -218.00000 144.00000
51 -189.00000 145.00000
52 -156.00000 65.00000
53 -110.00000 95.00000
54 -108.00000 67.00000
55 -100.00000 62.00000
56 -118.00000 110.00000
57 -98.00000 116.00000
58 -121.00000 141.00000
59 -142.00000 214.00000
60 -115.00000 234.00000
61 -83.00000 245.00000
62 -78.00000 236.00000
63 -51.00000 253.00000
64 -54.00000 258.00000
65 -31.00000 259.00000
66 -26.00000 267.00000
67 1.00000 274.00000
68 10.00000 271.00000
69 5.00000 291.00000
70 -44.00000 237.00000
71 -26.00000 223.00000
72 -41.00000 221.00000
73 -50.00000 205.00000
74 -68.00000 214.00000
75 -68.00000 193.00000
76 -79.00000 193.00000
77 -92.00000 205.00000
78 -90.00000 191.00000
79 -134.00000 189.00000
80 -107.00000 164.00000
81 -87.00000 143.00000
82 -69.00000 136.00000
83 -73.00000 107.00000
84 -90.00000 99.00000
85 -80.00000 80.00000
86 -87.00000 58.00000
87 -67.00000 58.00000
88 -45.00000 70.00000
89 -61.00000 89.00000
90 -46.00000 104.00000
91 -55.00000 126.00000
92 -22.00000 63.00000
93 -13.00000 63.00000
94 -2.00000 80.00000
95 28.00000 70.00000
96 11.00000 91.00000
97 -3.00000 92.00000
98 23.00000 111.00000
99 8.00000 119.00000
100 -22.00000 87.00000
101 -30.00000 104.00000
102 -15.00000 111.00000
103 -31.00000 147.00000
104 -62.00000 153.00000
105 -41.00000 153.00000
106 -43.00000 162.00000
107 -36.00000 193.00000
108 -1.00000 184.00000
109 2.00000 202.00000
110 25.00000 224.00000
111 12.00000 230.00000
112 33.00000 246.00000
113 47.00000 248.00000
114 55.00000 253.00000
115 69.00000 250.00000
116 79.00000 265.00000
117 94.00000 276.00000
118 101.00000 288.00000
119 59.00000 286.00000
120 33.00000 281.00000
121 30.00000 286.00000
122 56.00000 215.00000
123 26.00000 202.00000
124 28.00000 179.00000
125 -31.00000 163.00000
126 8.00000 134.00000
127 27.00000 129.00000
128 52.00000 133.00000
129 42.00000 101.00000
130 19.00000 145.00000
131 28.00000 153.00000
132 56.00000 110.00000
133 35.00000 87.00000
134 55.00000 151.00000
135 74.00000 128.00000
136 80.00000 148.00000
137 56.00000 85.00000
138 44.00000 78.00000
139 53.00000 68.00000
140 85.00000 88.00000
141 88.00000 117.00000
142 98.00000 151.00000
143 103.00000 141.00000
144 105.00000 157.00000
145 90.00000 171.00000
146 62.00000 183.00000
147 79.00000 237.00000
148 100.00000 262.00000
149 104.00000 243.00000
150 90.00000 224.00000
151 96.00000 214.00000
152 83.00000 199.00000
153 97.00000 191.00000
154 109.00000 189.00000
155 111.00000 226.00000
156 116.00000 249.00000
157 124.00000 252.00000
158 140.00000 265.00000
159 153.00000 293.00000
160 162.00000 283.00000
161 156.00000 277.00000
162 146.00000 250.00000
163 134.00000 236.00000
164 134.00000 228.00000
165 131.00000 215.00000
166 145.00000 201.00000
167 119.00000 210.00000
168 129.00000 186.00000
169 118.00000 178.00000
170 143.00000 154.00000
171 124.00000 139.00000
172 113.00000 140.00000
173 134.00000 148.00000
174 104.00000 115.00000
175 123.00000 122.00000
176 148.00000 132.00000
177 160.00000 144.00000
178 162.00000 137.00000
179 158.00000 111.00000
180 141.00000 101.00000
181 135.00000 96.00000
182 134.00000 68.00000
183 156.00000 83.00000
184 160.00000 94.00000
185 141.00000 57.00000
186 166.00000 60.00000
187 166.00000 73.00000
188 -148.00000 89.00000
189 -32.00000 122.00000
190 183.00000 56.00000
191 172.00000 107.00000
192 170.00000 196.00000
193 170.00000 221.00000
194 186.00000 150.00000
195 179.00000 163.00000
196 187.00000 204.00000
197 180.00000 211.00000
198 187.00000 253.00000
199 181.00000 279.00000
200 188.00000 183.00000
201 199.00000 229.00000
202 194.00000 268.00000
203 199.00000 55.00000
204 205.00000 171.00000
205 210.00000 208.00000
206 217.00000 178.00000
207 218.00000 197.00000
208 212.00000 227.00000
209 219.00000 60.00000
210 220.00000 166.00000
211 228.00000 189.00000
212 242.00000 198.00000
213 243.00000 207.00000
214 240.00000 230.00000
215 244.00000 245.00000
216 255.00000 218.00000
217 243.00000 266.00000
218 267.00000 252.00000
219 273.00000 237.00000
220 277.00000 279.00000
221 284.00000 254.00000
222 -299.00000 -185.00000
223 -282.00000 -177.00000
224 -312.00000 -160.00000
225 -323.00000 -150.00000
226 -292.00000 -157.00000
227 -280.00000 -151.00000
228 -254.00000 -149.00000
229 -255.00000 -138.00000
230 -282.00000 -139.00000
231 -292.00000 -138.00000
232 -304.00000 -129.00000
233 -301.00000 -120.00000
234 -316.00000 -78.00000
235 -281.00000 -113.00000
236 -283.00000 -98.00000
237 -259.00000 -120.00000
238 -255.00000 -104.00000
239 -270.00000 -91.00000
240 -247.00000 -85.00000
241 -246.00000 -98.00000
242 -237.00000 -106.00000
243 -210.00000 -98.00000
244 -229.00000 -80.00000
245 -223.00000 -78.00000
246 -214.00000 -73.00000
247 -203.00000 -88.00000
248 -210.00000 -67.00000
249 -239.00000 -57.00000
250 -275.00000 -65.00000
251 -259.00000 -59.00000
252 -247.00000 -33.00000
253 -256.00000 -44.00000
254 -196.00000 -58.00000
255 -193.00000 -29.00000
256 -199.00000 -22.00000
257 -238.00000 -25.00000
258 -200.00000 -10.00000
259 -182.00000 -5.00000
260 -177.00000 -67.00000
261 -156.00000 -57.00000
262 -133.00000 -53.00000
263 -109.00000 -53.00000
264 -114.00000 -36.00000
265 -136.00000 -26.00000
266 -156.00000 -23.00000
267 -152.00000 -41.00000
268 159.00000 -44.00000
269 164.00000 -24.00000
270 126.00000 19.00000
271 138.00000 -35.00000
272 127.00000 -31.00000
273 122.00000 -36.00000
274 113.00000 -30.00000
275 106.00000 -29.00000
276 -85.00000 -42.00000
277 -90.00000 -17.00000
278 -124.00000 -19.00000
279 -115.00000 -2.00000
280 -139.00000 -13.00000
281 -180.00000 21.00000
282 -147.00000 39.00000
283 -177.00000 44.00000
284 -107.00000 36.00000
285 -99.00000 24.00000
286 -97.00000 10.00000
287 -86.00000 -1.00000
288 -79.00000 -16.00000
289 -73.00000 -17.00000
290 -72.00000 40.00000
291 -61.00000 29.00000
292 -80.00000 18.00000
293 -68.00000 11.00000
294 -72.00000 6.00000
295 -52.00000 -10.00000
296 -70.00000 0.00000
297 91.00000 -20.00000
298 77.00000 -17.00000
299 85.00000 -2.00000
300 75.00000 36.00000
301 161.00000 -51.00000
302 69.00000 -13.00000
303 -33.00000 -4.00000
304 -37.00000 6.00000
305 -43.00000 40.00000
306 -41.00000 27.00000
307 -42.00000 52.00000
308 -23.00000 16.00000
309 -19.00000 34.00000
310 -21.00000 4.00000
311 -5.00000 10.00000
312 -8.00000 -12.00000
313 -1.00000 45.00000
314 7.00000 37.00000
315 3.00000 8.00000
316 11.00000 18.00000
317 28.00000 47.00000
318 29.00000 15.00000
319 53.00000 43.00000
320 -90.00000 31.00000
321 -107.00000 -10.00000
322 -57.00000 8.00000
323 47.00000 -4.00000
324 275.00000 -180.00000
325 268.00000 -165.00000
326 253.00000 -160.00000
327 272.00000 -141.00000
328 275.00000 -116.00000
329 263.00000 -103.00000
330 222.00000 -79.00000
331 210.00000 -66.00000
332 249.00000 -65.00000
333 234.00000 -56.00000
334 208.00000 -57.00000
335 202.00000 -56.00000
336 200.00000 -51.00000
337 210.00000 -47.00000
338 173.00000 -54.00000
339 185.00000 18.00000
340 187.00000 36.00000
341 201.00000 36.00000
342 226.00000 26.00000
343 233.00000 32.00000
344 226.00000 52.00000
345 189.00000 48.00000
346 170.00000 45.00000
347 392.00000 -62.00000
348 435.00000 -53.00000
349 492.00000 -38.00000
350 253.00000 47.00000
351 -317.00000 -193.00000
352 -291.00000 -204.00000
353 -305.00000 -220.00000
354 -292.00000 -224.00000
355 -306.00000 -230.00000
356 -338.00000 -223.00000
357 -310.00000 -237.00000
358 378.00000 -278.00000
359 339.00000 -302.00000
360 340.00000 -200.00000
361 326.00000 -251.00000
362 305.00000 -229.00000
363 300.00000 -214.00000
364 299.00000 -193.00000
365 249.00000 -193.00000
366 255.00000 229.00000
367 171.00000 266.00000
368 208.00000 59.00000
369 224.00000 284.00000
370 86.00000 293.00000
371 13.00000 300.00000
372 16.00000 161.00000
373 25.00000 33.00000
374 256.00000 261.00000
375 -179.00000 -57.00000
376 376.00000 -178.00000
377 -29.00000 128.00000
378 15.00000 295.00000
379 155.00000 22.00000
380 -165.00000 -30.00000
381 -236.00000 -4.00000
382 128.00000 163.00000
383 343.00000 -338.00000
384 452.00000 -194.00000
385 363.00000 454.00000
386 -273.00000 72.00000
DEMAND_SECTION
1 0
2 3
3 7
4 7
5 15
6 1
7 23
8 5
9 3
10 3
11 2
12 6
13 1
14 1
15 1
16 2
17 1
18 4
19 8
20 42
21 1
22 1
23 3
24 1
25 1
26 2
27 3
28 4
29 5
30 1
31 1
32 3
33 14
34 13
35 6
36 2
37 2
38 2
39 1
40 24
41 5
42 2
43 2
44 4
45 1
46 1
47 1
48 1
49 6
50 7
51 10
52 2
53 1
54 6
55 1
56 7
57 3
58 3
59 31
60 8
61 2
62 1
63 1
64 1
65 3
66 4
67 3
68 1
69 3
70 3
71 45
72 2
73 1
74 1
75 2
76 4
77 1
78 2
79 4
80 1
81 2
82 1
83 2
84 1
85 2
86 2
87 3
88 4
89 2
90 19
91 1
92 10
93 3
94 6
95 28
96 3
97 2
98 2
99 2
100 12
101 21
102 5
103 7
104 1
105 14
106 7
107 5
108 4
109 20
110 2
111 1
112 2
113 1
114 1
115 1
116 4
117 1
118 1
119 42
120 2
121 4
122 5
123 3
124 2
125 1
126 4
127 4
128 33
129 5
130 1
131 4
132 1
133 7
134 6
135 4
136 1
137 4
138 8
139 17
140 12
141 4
142 1
143 2
144 1
145 3
146 5
147 1
148 3
149 1
150 2
151 1
152 3
153 1
154 7
155 1
156 3
157 1
158 1
159 1
160 2
161 1
162 1
163 1
164 1
165 1
166 4
167 2
168 3
169 1
170 1
171 1
172 1
173 2
174 2
175 2
176 2
177 1
178 1
179 4
180 3
181 4
182 2
183 9
184 6
185 5
186 6
187 2
188 6
189 1
190 1
191 3
192 1
193 1
194 1
195 43
196 1
197 1
198 3
199 1
200 1
201 1
202 2
203 10
204 1
205 21
206 1
207 2
208 1
209 1
210 1
211 1
212 1
213 2
214 2
215 2
216 1
217 11
218 1
219 1
220 2
221 1
222 7
223 17
224 5
225 6
226 1
227 7
228 35
229 24
230 3
231 2
232 7
233 9
234 13
235 8
236 7
237 6
238 3
239 13
240 12
241 5
242 4
243 3
244 3
245 2
246 4
247 2
248 7
249 3
250 13
251 6
252 2
253 7
254 1
255 4
256 1
257 3
258 14
259 2
260 38
261 9
262 4
263 5
264 14
265 23
266 2
267 5
268 18
269 21
270 28
271 3
272 2
273 18
274 17
275 4
276 36
277 4
278 6
279 8
280 3
281 14
282 3
283 1
284 9
285 3
286 2
287 3
288 5
289 15
290 3
291 2
292 1
293 2
294 5
295 12
296 2
297 11
298 12
299 19
300 30
301 3
302 10
303 38
304 14
305 4
306 3
307 3
308 20
309 42
310 10
311 42
312 26
313 4
314 53
315 56
316 8
317 25
318 60
319 47
320 1
321 2
322 8
323 49
324 8
325 3
326 5
327 37
328 7
329 23
330 34
331 4
332 40
333 37
334 32
335 21
336 21
337 11
338 3
339 1
340 1
341 9
342 3
343 2
344 1
345 3
346 2
347 4
348 29
349 8
350 1
351 11
352 18
353 23
354 19
355 11
356 3
357 12
358 9
359 54
360 23
361 51
362 10
363 8
364 3
365 2
366 1
367 1
368 1
369 1
370 5
371 1
372 1
373 8
374 1
375 14
376 8
377 1
378 1
379 14
380 1
381 4
382 2
383 8
384 10
385 2
386 40
DEPOT_SECTION
1
-1
EOF
